 9 1 2 0       1 6 3 0
 9               d 1 0
10 1 3 0       9 8 6 0
10               d 6 0
11   1 0    10 9 4 8 0
11          d 10 9 8 0
12   2 0    11 7 5 3 0
12             d 7 3 0
13     0 11 12 2 4 5 0